(set-info :smt-lib-version 2.6)
(set-logic QF_NIA)
(set-info :source |
Generated by: Cristina Borralleras, Daniel Larraz, Albert Oliveras, Enric Rodriguez-Carbonell, Albert Rubio
Generated on: 2017-04-27
Generator: VeryMax
Application: Termination proving
Target solver: barcelogic
|)
(set-info :license "https://creativecommons.org/licenses/by/4.0/")
(set-info :category "industrial")
(set-info :status unsat)
(declare-fun Nl3arg11 () Int)
(declare-fun Nl3arg21 () Int)
(declare-fun lam0n0 () Int)
(declare-fun lam0n1 () Int)
(declare-fun lam0n2 () Int)
(declare-fun Nl3CT1 () Int)
(declare-fun lam1n0 () Int)
(declare-fun lam1n1 () Int)
(declare-fun lam1n2 () Int)
(declare-fun lam2n0 () Int)
(declare-fun lam2n1 () Int)
(declare-fun lam3n0 () Int)
(declare-fun lam3n1 () Int)
(declare-fun lam4n0 () Int)
(declare-fun lam4n1 () Int)
(declare-fun lam4n2 () Int)
(declare-fun lam4n3 () Int)
(declare-fun lam4n4 () Int)
(assert ( and ( <= ( - 2 ) Nl3arg11 ) ( <= Nl3arg11 2 ) ( <= ( - 2 ) Nl3arg21 ) ( <= Nl3arg21 2 ) ))
(assert ( or ( and ( >= lam0n0 0 ) ( >= lam0n1 0 ) ( >= lam0n2 0 ) ( > ( + ( * ( - 1 ) lam0n0 ) ( * 2 lam0n1 ) ( * Nl3CT1 lam0n2 ) ( - 1 ) ) 0 ) ( = ( + ( * ( - 1 ) lam0n1 ) ( * Nl3arg11 lam0n2 ) ) 0 ) ( = ( + ( * 1 lam0n0 ) ( * Nl3arg21 lam0n2 ) ) 0 ) ) ( and ( >= lam1n0 0 ) ( >= lam1n1 0 ) ( >= lam1n2 0 ) ( > ( + ( * ( - 1 ) lam1n0 ) ( * 2 lam1n1 ) ( * Nl3CT1 lam1n2 ) ( - 1 ( + ( + Nl3CT1 ( * Nl3arg11 0 ) ) ( * Nl3arg21 0 ) ) ) ) 0 ) ( = ( + ( * ( - 1 ) lam1n1 ) ( * Nl3arg11 lam1n2 ) ( - ( + 0 ( * Nl3arg21 1 ) ) ) ) 0 ) ( = ( + ( * 1 lam1n0 ) ( * Nl3arg21 lam1n2 ) ) 0 ) ) ))
(assert ( or ( and ( >= lam2n0 0 ) ( >= lam2n1 0 ) ( > ( + ( * 2 lam2n0 ) ( * Nl3CT1 lam2n1 ) ( - 1 ) ) 0 ) ( = ( * Nl3arg11 lam2n1 ) 0 ) ( = ( + ( * ( - 1 ) lam2n0 ) ( * Nl3arg21 lam2n1 ) ) 0 ) ) ( and ( >= lam3n0 0 ) ( >= lam3n1 0 ) ( > ( + ( * 2 lam3n0 ) ( * Nl3CT1 lam3n1 ) ( - 1 ( + ( + Nl3CT1 ( * Nl3arg11 1 ) ) ( * Nl3arg21 ( - 2 ) ) ) ) ) 0 ) ( = ( + ( * Nl3arg11 lam3n1 ) ( - ( + 0 ( * Nl3arg11 1 ) ) ) ) 0 ) ( = ( + ( * ( - 1 ) lam3n0 ) ( * Nl3arg21 lam3n1 ) ( - ( + 0 ( * Nl3arg21 1 ) ) ) ) 0 ) ) ))
(assert ( and ( >= lam4n0 0 ) ( >= lam4n1 0 ) ( >= lam4n2 0 ) ( > ( + ( * 1 lam4n0 ) ( * 2 lam4n2 ) ( - 1 Nl3CT1 ) ) 0 ) ( = ( + ( * 1 lam4n3 ) ( - ( + 0 Nl3arg11 ) ) ) 0 ) ( = ( + ( * 1 lam4n4 ) ( - ( + 0 Nl3arg21 ) ) ) 0 ) ( = ( + ( * ( - 1 ) lam4n2 ) ( * ( - 1 ) lam4n4 ) ) 0 ) ( = ( * ( - 1 ) lam4n0 ) 0 ) ( = ( * ( - 1 ) lam4n1 ) 0 ) ))
(assert ( or ( and ( >= lam0n0 0 ) ( >= lam0n1 0 ) ( >= lam0n2 0 ) ( > ( + ( * ( - 1 ) lam0n0 ) ( * 2 lam0n1 ) ( * Nl3CT1 lam0n2 ) ( - 1 ) ) 0 ) ( = ( + ( * ( - 1 ) lam0n1 ) ( * Nl3arg11 lam0n2 ) ) 0 ) ( = ( + ( * 1 lam0n0 ) ( * Nl3arg21 lam0n2 ) ) 0 ) ) ( and ( >= lam2n0 0 ) ( >= lam2n1 0 ) ( > ( + ( * 2 lam2n0 ) ( * Nl3CT1 lam2n1 ) ( - 1 ) ) 0 ) ( = ( * Nl3arg11 lam2n1 ) 0 ) ( = ( + ( * ( - 1 ) lam2n0 ) ( * Nl3arg21 lam2n1 ) ) 0 ) ) ))
(check-sat)
(exit)
